c Reduced graph for p32 generated by Cyril Grelier
p edge 51 221
e 1 7
e 1 12
e 1 21
e 1 27
e 1 28
e 1 34
e 1 40
e 1 48
e 1 50
e 2 8
e 2 14
e 2 19
e 2 33
e 2 35
e 3 10
e 3 17
e 3 26
e 3 36
e 3 38
e 3 44
e 3 46
e 3 49
e 4 7
e 4 13
e 4 25
e 4 27
e 4 29
e 4 44
e 4 51
e 5 15
e 5 20
e 5 23
e 5 25
e 5 26
e 5 32
e 5 48
e 5 49
e 5 51
e 6 10
e 6 15
e 6 16
e 6 17
e 6 18
e 6 19
e 6 22
e 6 24
e 6 33
e 6 39
e 6 41
e 6 42
e 6 45
e 7 12
e 7 21
e 7 25
e 7 29
e 7 34
e 7 50
e 8 11
e 8 12
e 8 16
e 8 33
e 8 35
e 9 20
e 9 24
e 9 35
e 9 40
e 9 43
e 9 46
e 9 50
e 10 16
e 10 19
e 10 22
e 10 24
e 10 26
e 10 42
e 10 44
e 11 12
e 11 16
e 11 37
e 11 41
e 11 47
e 12 16
e 12 21
e 12 34
e 12 50
e 13 22
e 13 27
e 13 30
e 13 44
e 13 51
e 14 19
e 14 30
e 14 39
e 15 17
e 15 18
e 15 20
e 15 23
e 15 25
e 15 26
e 15 32
e 15 33
e 15 39
e 15 41
e 15 45
e 15 48
e 16 19
e 16 22
e 16 24
e 16 42
e 17 18
e 17 33
e 17 36
e 17 38
e 17 39
e 17 41
e 17 45
e 17 46
e 17 49
e 18 28
e 18 29
e 18 31
e 18 33
e 18 39
e 18 41
e 18 43
e 18 45
e 19 22
e 19 24
e 19 42
e 20 23
e 20 24
e 20 25
e 20 26
e 20 32
e 20 35
e 20 43
e 20 46
e 20 48
e 20 50
e 21 23
e 21 34
e 21 36
e 21 42
e 21 47
e 21 50
e 22 24
e 22 30
e 22 42
e 23 25
e 23 26
e 23 32
e 23 36
e 23 42
e 23 47
e 23 48
e 24 35
e 24 42
e 24 43
e 24 46
e 24 50
e 25 26
e 25 29
e 25 32
e 25 48
e 26 32
e 26 44
e 26 48
e 27 28
e 27 40
e 27 44
e 27 48
e 27 51
e 28 29
e 28 31
e 28 40
e 28 43
e 28 48
e 29 31
e 29 43
e 30 39
e 31 32
e 31 34
e 31 37
e 31 38
e 31 43
e 32 34
e 32 37
e 32 38
e 32 48
e 33 35
e 33 39
e 33 41
e 33 45
e 34 37
e 34 38
e 34 50
e 35 43
e 35 46
e 35 50
e 36 38
e 36 42
e 36 46
e 36 47
e 36 49
e 37 38
e 37 41
e 37 47
e 38 46
e 38 49
e 39 41
e 39 45
e 40 48
e 41 45
e 41 47
e 42 47
e 43 46
e 43 50
e 44 51
e 46 49
e 46 50
e 49 51
